(set-info :source |printed by MathSAT|)
(declare-fun |.x{163}| () Int)
(declare-fun |.x{172}| () Int)
(declare-fun |.x{164}| () Int)
(declare-fun |.y{3}| () Int)
(declare-fun |.x{165}| () (Array Int Int))
(declare-fun |.x{173}| () (Array Int Int))
(declare-fun |.x{166}| () Int)
(declare-fun |.x{171}| () Int)
(declare-fun |.y{2}| () Int)
(declare-fun |.x{174}| () Int)
(declare-fun |.loc{4}| () Bool)
(declare-fun |.loc{7}| () Bool)
(declare-fun |.loc{5}| () Bool)
(declare-fun |.loc{8}| () Bool)
(declare-fun |.loc{6}| () Bool)
(declare-fun |.loc{9}| () Bool)
(declare-fun |.x{182}| () Int)
(declare-fun |.x{200}| () Int)
(define-fun .def_18 () Bool (! |.loc{4}| :next |.loc{7}|))
(define-fun .def_65 () Bool (not .def_18))
(define-fun .def_20 () Bool (! |.loc{5}| :next |.loc{8}|))
(define-fun .def_30 () Bool (not .def_20))
(define-fun .def_204 () Bool (and .def_30 .def_65))
(define-fun .def_22 () Bool (! |.loc{6}| :next |.loc{9}|))
(define-fun .def_37 () Bool (not .def_22))
(define-fun .def_205 () Bool (! (and .def_37 .def_204) :init true))
(define-fun .def_184 () Bool (= |.x{171}| 0))
(define-fun .def_14 () Int (! |.x{166}| :next |.x{171}|))
(define-fun .def_181 () Bool (= .def_14 |.x{174}|))
(define-fun .def_182 () Bool (and .def_18 .def_181))
(define-fun .def_183 () Bool (and .def_30 .def_182))
(define-fun .def_185 () Bool (and .def_183 .def_184))
(define-fun .def_10 () Int (! |.x{164}| :next |.y{3}|))
(define-fun .def_47 () Bool (<= .def_14 .def_10))
(define-fun .def_186 () Bool (and .def_47 .def_185))
(define-fun .def_54 () Int (* (- 1) |.x{182}|))
(define-fun .def_175 () Int (+ .def_14 .def_54))
(define-fun .def_8 () Int (! |.x{163}| :next |.x{172}|))
(define-fun .def_176 () Int (+ .def_8 .def_175))
(define-fun .def_177 () Bool (= .def_176 0))
(define-fun .def_16 () Int (! |.y{2}| :next |.x{174}|))
(define-fun .def_172 () Bool (<= .def_16 .def_14))
(define-fun .def_173 () Bool (not .def_172))
(define-fun .def_12 () (Array Int Int) (! |.x{165}| :next |.x{173}|))
(define-fun .def_169 () Int (select .def_12 |.x{182}|))
(define-fun .def_170 () Bool (= .def_169 46))
(define-fun .def_163 () Int (* (- 1) |.x{171}|))
(define-fun .def_164 () Int (+ .def_14 .def_163))
(define-fun .def_165 () Bool (= .def_164 (- 1)))
(define-fun .def_162 () Bool (= .def_16 |.x{174}|))
(define-fun .def_166 () Bool (and .def_162 .def_165))
(define-fun .def_167 () Bool (and .def_65 .def_166))
(define-fun .def_168 () Bool (and .def_20 .def_167))
(define-fun .def_171 () Bool (and .def_168 .def_170))
(define-fun .def_174 () Bool (and .def_171 .def_173))
(define-fun .def_178 () Bool (and .def_174 .def_177))
(define-fun .def_43 () Bool (<= |.x{182}| 0))
(define-fun .def_44 () Bool (not .def_43))
(define-fun .def_41 () Bool (<= .def_8 0))
(define-fun .def_45 () Bool (or .def_41 .def_44))
(define-fun .def_179 () Bool (and .def_45 .def_178))
(define-fun .def_50 () Bool (not .def_41))
(define-fun .def_180 () Bool (and .def_50 .def_179))
(define-fun .def_187 () Bool (or .def_180 .def_186))
(define-fun .def_188 () Bool (and |.loc{8}| .def_187))
(define-fun .def_90 () Bool (not |.loc{7}|))
(define-fun .def_189 () Bool (and .def_90 .def_188))
(define-fun .def_63 () Bool (= |.y{3}| 0))
(define-fun .def_27 () Bool (= .def_14 |.x{171}|))
(define-fun .def_136 () Bool (and .def_27 .def_63))
(define-fun .def_157 () Bool (and .def_65 .def_136))
(define-fun .def_158 () Bool (and .def_30 .def_157))
(define-fun .def_159 () Bool (and .def_47 .def_158))
(define-fun .def_160 () Bool (and |.loc{7}| .def_159))
(define-fun .def_52 () Bool (not |.loc{8}|))
(define-fun .def_161 () Bool (and .def_52 .def_160))
(define-fun .def_190 () Bool (or .def_161 .def_189))
(define-fun .def_94 () Bool (= .def_12 |.x{173}|))
(define-fun .def_191 () Bool (and .def_94 .def_190))
(define-fun .def_149 () (Array Int Int) (store .def_12 |.x{182}| 46))
(define-fun .def_150 () Bool (= |.x{173}| .def_149))
(define-fun .def_144 () Bool (and .def_18 .def_27))
(define-fun .def_145 () Bool (and .def_30 .def_144))
(define-fun .def_33 () Int (* (- 1) |.y{3}|))
(define-fun .def_34 () Int (+ .def_10 .def_33))
(define-fun .def_35 () Bool (= .def_34 (- 1)))
(define-fun .def_146 () Bool (and .def_35 .def_145))
(define-fun .def_147 () Bool (and |.loc{7}| .def_146))
(define-fun .def_151 () Bool (and .def_147 .def_150))
(define-fun .def_152 () Bool (and .def_45 .def_151))
(define-fun .def_48 () Bool (not .def_47))
(define-fun .def_153 () Bool (and .def_48 .def_152))
(define-fun .def_154 () Bool (and .def_50 .def_153))
(define-fun .def_155 () Bool (and .def_52 .def_154))
(define-fun .def_55 () Int (+ .def_10 .def_54))
(define-fun .def_56 () Int (+ .def_8 .def_55))
(define-fun .def_57 () Bool (= .def_56 0))
(define-fun .def_156 () Bool (and .def_57 .def_155))
(define-fun .def_192 () Bool (or .def_156 .def_191))
(define-fun .def_193 () Bool (and .def_22 .def_192))
(define-fun .def_137 () Bool (and .def_94 .def_136))
(define-fun .def_138 () Bool (and .def_18 .def_137))
(define-fun .def_139 () Bool (and .def_20 .def_138))
(define-fun .def_140 () Bool (and .def_47 .def_139))
(define-fun .def_141 () Bool (and .def_37 .def_140))
(define-fun .def_142 () Bool (and .def_90 .def_141))
(define-fun .def_143 () Bool (and .def_52 .def_142))
(define-fun .def_194 () Bool (or .def_143 .def_193))
(define-fun .def_123 () (Array Int Int) (store .def_12 |.x{182}| 45))
(define-fun .def_124 () Bool (= |.x{173}| .def_123))
(define-fun .def_125 () Bool (and .def_27 .def_124))
(define-fun .def_126 () Bool (and .def_65 .def_125))
(define-fun .def_127 () Bool (and .def_22 .def_126))
(define-fun .def_128 () Bool (and .def_30 .def_127))
(define-fun .def_129 () Bool (and .def_35 .def_128))
(define-fun .def_130 () Bool (and .def_45 .def_129))
(define-fun .def_131 () Bool (and .def_48 .def_130))
(define-fun .def_132 () Bool (and .def_50 .def_131))
(define-fun .def_133 () Bool (and .def_90 .def_132))
(define-fun .def_134 () Bool (and .def_52 .def_133))
(define-fun .def_135 () Bool (and .def_57 .def_134))
(define-fun .def_195 () Bool (or .def_135 .def_194))
(define-fun .def_196 () Bool (and |.loc{9}| .def_195))
(define-fun .def_24 () Bool (not |.loc{9}|))
(define-fun .def_64 () Bool (and .def_24 .def_63))
(define-fun .def_93 () Bool (and .def_27 .def_64))
(define-fun .def_95 () Bool (and .def_93 .def_94))
(define-fun .def_116 () Bool (and .def_65 .def_95))
(define-fun .def_117 () Bool (and .def_20 .def_116))
(define-fun .def_118 () Bool (and .def_47 .def_117))
(define-fun .def_119 () Bool (and .def_37 .def_118))
(define-fun .def_120 () Bool (and |.loc{7}| .def_119))
(define-fun .def_121 () Bool (and |.loc{8}| .def_120))
(define-fun .def_197 () Bool (or .def_121 .def_196))
(define-fun .def_105 () (Array Int Int) (store .def_12 |.x{182}| 44))
(define-fun .def_106 () Bool (= |.x{173}| .def_105))
(define-fun .def_77 () Bool (and .def_24 .def_27))
(define-fun .def_102 () Bool (and .def_18 .def_77))
(define-fun .def_103 () Bool (and .def_20 .def_102))
(define-fun .def_107 () Bool (and .def_103 .def_106))
(define-fun .def_108 () Bool (and .def_35 .def_107))
(define-fun .def_109 () Bool (and .def_37 .def_108))
(define-fun .def_110 () Bool (and |.loc{7}| .def_109))
(define-fun .def_111 () Bool (and .def_45 .def_110))
(define-fun .def_112 () Bool (and .def_48 .def_111))
(define-fun .def_113 () Bool (and |.loc{8}| .def_112))
(define-fun .def_114 () Bool (and .def_50 .def_113))
(define-fun .def_115 () Bool (and .def_57 .def_114))
(define-fun .def_198 () Bool (or .def_115 .def_197))
(define-fun .def_96 () Bool (and .def_18 .def_95))
(define-fun .def_97 () Bool (and .def_30 .def_96))
(define-fun .def_98 () Bool (and .def_47 .def_97))
(define-fun .def_99 () Bool (and .def_37 .def_98))
(define-fun .def_100 () Bool (and |.loc{8}| .def_99))
(define-fun .def_101 () Bool (and .def_90 .def_100))
(define-fun .def_199 () Bool (or .def_101 .def_198))
(define-fun .def_81 () (Array Int Int) (store .def_12 |.x{182}| 43))
(define-fun .def_82 () Bool (= |.x{173}| .def_81))
(define-fun .def_78 () Bool (and .def_65 .def_77))
(define-fun .def_79 () Bool (and .def_20 .def_78))
(define-fun .def_83 () Bool (and .def_79 .def_82))
(define-fun .def_84 () Bool (and .def_35 .def_83))
(define-fun .def_85 () Bool (and .def_37 .def_84))
(define-fun .def_86 () Bool (and .def_45 .def_85))
(define-fun .def_87 () Bool (and .def_48 .def_86))
(define-fun .def_88 () Bool (and |.loc{8}| .def_87))
(define-fun .def_89 () Bool (and .def_50 .def_88))
(define-fun .def_91 () Bool (and .def_89 .def_90))
(define-fun .def_92 () Bool (and .def_57 .def_91))
(define-fun .def_200 () Bool (or .def_92 .def_199))
(define-fun .def_25 () Bool (= .def_8 |.x{172}|))
(define-fun .def_201 () Bool (and .def_25 .def_200))
(define-fun .def_70 () Bool (<= |.x{171}| 0))
(define-fun .def_71 () Bool (not .def_70))
(define-fun .def_67 () Bool (<= |.x{172}| 0))
(define-fun .def_68 () Bool (not .def_67))
(define-fun .def_66 () Bool (and .def_64 .def_65))
(define-fun .def_69 () Bool (and .def_66 .def_68))
(define-fun .def_72 () Bool (and .def_69 .def_71))
(define-fun .def_73 () Bool (and .def_30 .def_72))
(define-fun .def_74 () Bool (and .def_37 .def_73))
(define-fun .def_75 () Bool (and |.loc{7}| .def_74))
(define-fun .def_76 () Bool (and .def_52 .def_75))
(define-fun .def_202 () Bool (or .def_76 .def_201))
(define-fun .def_60 () (Array Int Int) (store .def_12 |.x{182}| 42))
(define-fun .def_61 () Bool (= |.x{173}| .def_60))
(define-fun .def_26 () Bool (and .def_24 .def_25))
(define-fun .def_28 () Bool (and .def_26 .def_27))
(define-fun .def_29 () Bool (and .def_18 .def_28))
(define-fun .def_31 () Bool (and .def_29 .def_30))
(define-fun .def_36 () Bool (and .def_31 .def_35))
(define-fun .def_38 () Bool (and .def_36 .def_37))
(define-fun .def_39 () Bool (and |.loc{7}| .def_38))
(define-fun .def_46 () Bool (and .def_39 .def_45))
(define-fun .def_49 () Bool (and .def_46 .def_48))
(define-fun .def_51 () Bool (and .def_49 .def_50))
(define-fun .def_53 () Bool (and .def_51 .def_52))
(define-fun .def_58 () Bool (and .def_53 .def_57))
(define-fun .def_62 () Bool (and .def_58 .def_61))
(define-fun .def_203 () Bool (! (or .def_62 .def_202) :trans true))
(define-fun .def_206 () Int (! |.x{200}| :next |.xpv{1}|))
(define-fun .def_221 () Bool (and .def_20 .def_65))
(define-fun .def_222 () Bool (and .def_22 .def_221))
(define-fun .def_217 () Int (select .def_12 .def_206))
(define-fun .def_218 () Bool (= .def_217 46))
(define-fun .def_219 () Bool (not .def_218))
(define-fun .def_210 () Int (* (- 1) .def_206))
(define-fun .def_211 () Int (+ .def_14 .def_210))
(define-fun .def_212 () Int (+ .def_8 .def_211))
(define-fun .def_213 () Bool (= .def_212 0))
(define-fun .def_214 () Bool (and .def_173 .def_213))
(define-fun .def_207 () Bool (<= .def_206 0))
(define-fun .def_208 () Bool (not .def_207))
(define-fun .def_209 () Bool (or .def_41 .def_208))
(define-fun .def_215 () Bool (and .def_209 .def_214))
(define-fun .def_216 () Bool (and .def_50 .def_215))
(define-fun .def_220 () Bool (and .def_216 .def_219))
(define-fun .def_223 () Bool (and .def_220 .def_222))
(define-fun .def_225 () Bool (! (not .def_223) :invar-property 0))
(assert true)
